tsp_instances/TSP50/instance18.tsp
NODE_COORD_SECTION
0 40 41
1 61 86
2 71 49
3 162 117
4 116 177
5 142 12
6 197 56
7 171 152
8 18 159
9 0 146
10 26 42
11 130 182
12 14 188
13 141 20
14 71 7
15 8 176
16 52 26
17 110 120
18 71 16
19 63 171
20 87 68
21 22 129
22 196 162
23 72 92
24 152 71
25 42 171
26 30 152
27 96 1
28 25 22
29 48 119
30 71 131
31 177 44
32 173 194
33 1 185
34 139 1
35 163 83
36 73 25
37 21 21
38 134 23
39 35 105
40 61 131
41 116 115
42 116 176
43 59 45
44 93 21
45 188 104
46 97 174
47 128 15
48 156 99
49 49 172
