tsp_instances/TSP50/instance18.opt.tour
TOUR_SECTION
1
11
38
29
17
37
19
15
45
28
48
35
6
14
39
32
7
25
36
49
46
4
8
23
33
12
43
5
47
20
50
26
27
9
13
34
16
10
22
40
30
41
31
18
42
24
2
21
3
44
-1